
  22    4
  10   10   10   10

   0   0   0   0   0   4 2 3 4 6 
  10  10  10  10  10   3 9 7 5 
   9  10  10  10  10   4 13 9 8 7 
   8  10  10  10  10   4 13 9 8 7 
   9  10  10  10  10   2 13 8 
   5  10  10  10  10   2 13 7 
   1  10  10  10  10   4 21 20 11 10 
   8  10  10  10  10   4 21 20 11 10 
   3  10  10  10  10   4 21 20 17 11 
   2  10  10  10  10   2 17 12 
   3  10  10  10  10   1 12 
   5  10  10  10  10   1 14 
   5  10  10  10  10   3 20 19 15 
   3  10  10  10  10   2 16 15 
   5  10  10  10  10   1 18 
   2  10  10  10  10   1 19 
   2  10  10  10  10   1 18 
   5  10  10  10  10   1 22
   9  10  10  10  10   1 22
   5  10  10  10  10   1 22
   6  10  10  10  10   1 22
   0   0   0   0   0   0 
